NAME : u574
TYPE : OP
DIMENSION : 574
COST_LIMIT : 18453
ROUTE_NODES : 310
ROUTE_SCORE : 18966
ROUTE_COST : 18445
NODE_SEQUENCE_SECTION
1
569
568
567
566
565
564
3
4
6
557
556
555
554
552
551
550
547
545
544
543
542
540
539
538
537
536
530
532
531
528
527
526
533
535
534
504
505
503
502
501
500
499
498
508
506
507
479
478
477
515
516
517
518
247
246
245
203
202
201
249
250
198
199
196
195
194
193
191
279
277
276
263
262
259
260
261
257
255
256
396
461
462
460
459
457
468
467
469
471
473
472
482
483
484
493
494
495
486
487
488
489
454
455
452
442
443
444
447
445
433
432
423
422
421
420
418
417
425
426
413
415
416
404
403
394
406
408
409
410
411
359
360
361
362
363
364
365
366
350
367
368
369
347
345
371
340
338
339
372
373
374
378
377
382
383
384
386
387
388
389
265
264
273
272
322
321
323
326
325
324
320
318
317
316
315
314
313
312
311
300
301
302
303
304
307
308
282
283
284
306
305
296
295
294
286
287
293
288
172
173
174
176
177
178
179
181
182
183
184
210
211
233
232
234
235
237
240
239
206
205
204
243
242
226
227
225
224
223
220
221
222
16
15
17
18
21
22
23
24
25
26
165
164
155
163
162
160
156
157
150
149
148
147
146
144
143
142
140
138
137
135
133
132
125
126
69
68
67
66
65
72
73
74
115
116
117
118
120
121
122
123
99
101
102
103
104
105
106
94
93
91
90
89
88
87
37
38
39
40
42
43
56
57
55
54
52
51
50
574
-1
DEPOT_SECTION
1
-1
EOF
